q_encodings/testFilesGo/qbf_encoding.qdimacs
p cnf 24 123
a 2 0
a 3 0
a 4 0
a 5 0
a 6 0
a 7 0
a 8 0
a 9 0
a 10 0
a 11 0
a 12 0
a 13 0
a 14 0
a 15 0
a 16 0
a 17 0
a 18 0
a 19 0
a 20 0
a 21 0
a 22 0
a 23 0
a 24 0
a 25 0
a 26 0
a 27 0
a 28 0
a 29 0
a 30 0
a 31 0
a 32 0
a 33 0
a 34 0
a 35 0
a 36 0
a 37 0
e 38 0
e 39 0
e 40 0
e 41 0
e 42 0
e 43 0
e 44 0
e 45 0
e 46 0
e 47 0
e 48 0
e 49 0
e 50 0
e 51 0
e 52 0
e 53 0
e 54 0
e 55 0
e 56 0
e 57 0
e 58 0
e 59 0
e 60 0
e 61 0
e 62 0
e 63 0
e 64 0
e 65 0
e 66 0
e 67 0
e 68 0
e 69 0
e 70 0
e 71 0
e 72 0
e 73 0
26 14 1 0
-26 -1 0
-14 -1 0
26 2 74 0
-26 -74 0
-2 -74 0
14 2 75 0
-14 -75 0
-2 -75 0
27 15 76 0
-27 -76 0
-15 -76 0
27 3 77 0
-27 -77 0
-3 -77 0
15 3 78 0
-15 -78 0
-3 -78 0
28 16 79 0
-28 -79 0
-16 -79 0
28 4 80 0
-28 -80 0
-4 -80 0
16 4 81 0
-16 -81 0
-4 -81 0
29 17 82 0
-29 -82 0
-17 -82 0
29 5 83 0
-29 -83 0
-5 -83 0
17 5 84 0
-17 -84 0
-5 -84 0
-2 -48 -85 0
2 85 0
48 85 0
-3 -50 -86 0
3 86 0
50 86 0
-4 -52 -87 0
4 87 0
52 87 0
-5 -54 -88 0
5 88 0
54 88 0
14 38 -89 0
-14 89 0
-38 89 0
38 6 -90 0
-38 90 0
-6 90 0
26 38 -91 0
-26 91 0
-38 91 0
15 39 -92 0
-15 92 0
-39 92 0
39 7 -93 0
-39 93 0
-7 93 0
27 39 -94 0
-27 94 0
-39 94 0
16 40 -95 0
-16 95 0
-40 95 0
40 8 -96 0
-40 96 0
-8 96 0
28 40 -97 0
-28 97 0
-40 97 0
17 41 -98 0
-17 98 0
-41 98 0
41 9 -99 0
-41 99 0
-9 99 0
29 41 -100 0
-29 100 0
-41 100 0
-26 30 -101 0
26 101 0
-30 101 0
-27 31 -102 0
27 102 0
-31 102 0
-28 32 -103 0
28 103 0
-32 103 0
-29 33 -104 0
29 104 0
-33 104 0
-14 18 -105 0
14 105 0
-18 105 0
-15 19 -106 0
15 106 0
-19 106 0
-16 20 -107 0
16 107 0
-20 107 0
-17 21 -108 0
17 108 0
-21 108 0
-30 26 -109 0
30 109 0
-26 109 0
-101 -109 110 0
101 -110 0
109 -110 0
-18 14 -111 0
18 111 0
-14 111 0
-105 -111 112 0
105 -112 0
111 -112 0
-2 6 -113 0
2 113 0
-6 113 0
-6 2 -114 0
6 114 0
-2 114 0
-113 -114 115 0
113 -115 0
114 -115 0
-31 27 -116 0
31 116 0
-27 116 0
-102 -116 118 0
102 -118 0
116 -118 0
-19 15 -119 0
19 119 0
-15 119 0
-106 -119 120 0
106 -120 0
119 -120 0
-3 7 -121 0
3 121 0
-7 121 0
-7 3 -122 0
7 122 0
-3 122 0
-121 -122 123 0
121 -123 0
122 -123 0
-32 28 -124 0
32 124 0
-28 124 0
-103 -124 126 0
103 -126 0
124 -126 0
-20 16 -127 0
20 127 0
-16 127 0
-107 -127 128 0
107 -128 0
127 -128 0
-4 8 -129 0
4 129 0
-8 129 0
-8 4 -130 0
8 130 0
-4 130 0
-129 -130 131 0
129 -131 0
130 -131 0
-33 29 -132 0
33 132 0
-29 132 0
-104 -132 134 0
104 -134 0
132 -134 0
-21 17 -135 0
21 135 0
-17 135 0
-108 -135 136 0
108 -136 0
135 -136 0
-5 9 -137 0
5 137 0
-9 137 0
-9 5 -138 0
9 138 0
-5 138 0
-137 -138 139 0
137 -139 0
138 -139 0
-117 -125 -133 -141 -142 140 0
117 -140 0
125 -140 0
133 -140 0
141 -140 0
142 -140 0
-142 142 143 0
142 -143 0
-142 -143 0
-6 -56 -145 0
6 145 0
56 145 0
-7 -58 -146 0
7 146 0
58 146 0
-8 -60 -147 0
8 147 0
60 147 0
-9 -62 -148 0
9 148 0
62 148 0
18 42 -149 0
-18 149 0
-42 149 0
42 10 -150 0
-42 150 0
-10 150 0
30 42 -151 0
-30 151 0
-42 151 0
19 43 -152 0
-19 152 0
-43 152 0
43 11 -153 0
-43 153 0
-11 153 0
31 43 -154 0
-31 154 0
-43 154 0
20 44 -155 0
-20 155 0
-44 155 0
44 12 -156 0
-44 156 0
-12 156 0
32 44 -157 0
-32 157 0
-44 157 0
21 45 -158 0
-21 158 0
-45 158 0
45 13 -159 0
-45 159 0
-13 159 0
33 45 -160 0
-33 160 0
-45 160 0
-30 34 -161 0
30 161 0
-34 161 0
-31 35 -162 0
31 162 0
-35 162 0
-32 36 -163 0
32 163 0
-36 163 0
-33 37 -164 0
33 164 0
-37 164 0
-18 22 -165 0
18 165 0
-22 165 0
-19 23 -166 0
19 166 0
-23 166 0
-20 24 -167 0
20 167 0
-24 167 0
-21 25 -168 0
21 168 0
-25 168 0
-34 30 -169 0
34 169 0
-30 169 0
-161 -169 170 0
161 -170 0
169 -170 0
-22 18 -171 0
22 171 0
-18 171 0
-165 -171 172 0
165 -172 0
171 -172 0
-6 10 -173 0
6 173 0
-10 173 0
-10 6 -174 0
10 174 0
-6 174 0
-173 -174 175 0
173 -175 0
174 -175 0
-35 31 -176 0
35 176 0
-31 176 0
-162 -176 178 0
162 -178 0
176 -178 0
-23 19 -179 0
23 179 0
-19 179 0
-166 -179 180 0
166 -180 0
179 -180 0
-7 11 -181 0
7 181 0
-11 181 0
-11 7 -182 0
11 182 0
-7 182 0
-181 -182 183 0
181 -183 0
182 -183 0
-36 32 -184 0
36 184 0
-32 184 0
-163 -184 186 0
163 -186 0
184 -186 0
-24 20 -187 0
24 187 0
-20 187 0
-167 -187 188 0
167 -188 0
187 -188 0
-8 12 -189 0
8 189 0
-12 189 0
-12 8 -190 0
12 190 0
-8 190 0
-189 -190 191 0
189 -191 0
190 -191 0
-37 33 -192 0
37 192 0
-33 192 0
-164 -192 194 0
164 -194 0
192 -194 0
-25 21 -195 0
25 195 0
-21 195 0
-168 -195 196 0
168 -196 0
195 -196 0
-9 13 -197 0
9 197 0
-13 197 0
-13 9 -198 0
13 198 0
-9 198 0
-197 -198 199 0
197 -199 0
198 -199 0
-177 -185 -193 -201 -202 200 0
177 -200 0
185 -200 0
193 -200 0
201 -200 0
202 -200 0
-202 202 203 0
202 -203 0
-202 -203 0
-36 -37 -206 205 0
36 -205 0
37 -205 0
206 -205 0
206 208 -207 0
-206 207 0
-208 207 0
208 0
